NAME : 60_5_04.72973.tour
COMMENT : Cost = 0_72973
COMMENT : Found by LKH [Keld Helsgaun] Thu Sep 14 11:13:15 2017
TYPE : TOUR
DIMENSION : 65
TOUR_SECTION
1
46
26
43
32
45
44
50
34
33
16
17
20
21
15
36
38
64
4
14
13
39
11
5
8
57
54
56
22
25
27
24
23
53
37
42
35
62
10
7
65
12
9
63
61
55
58
48
31
6
28
49
2
41
3
59
51
29
52
30
60
47
40
19
18
-1
EOF
